36
75
52	8
51	2
50	2
49	4
48	5
47	1
46	3
45	1
43	3
42	2
41	6
40	3
39	2
38	2
37	4
36	4
35	4
34	1
33	3
32	3
31	3
30	3
29	3
28	5
27	4
26	1
24	3
23	2
22	2
21	1
20	3
19	1
18	1
17	2
16	2
15	1
